c Lingeling SAT Solver
c 
c Version ala b02aa1a04343558c4252b5f4a723be021964f652
c 
c Copyright (C) 2010-2012 Armin Biere JKU Linz Austria.
c All rights reserved.
c 
c released Sat Oct 13 14:05:26 CEST 2012
c compiled Sat Feb 16 02:48:12 EST 2013
c 
c gcc (Debian 4.4.5-8) 4.4.5
c -Wall -O3 -DNLGLOG -DNDEBUG -DNCHKSOL -DNLGLPICOSAT 
c Linux greencar2 2.6.32-5-amd64 x86_64
c 
c reading input file p41.cnf
c no embedded options
c found 'p cnf 237692 735292' header
c read 237692 variables, 735292 clauses, 1530168 literals in 0.0 seconds
c
c feature vars 237692
c feature lits.total 1530168
c feature lits.pos 815748
c feature lits.neg 714420
c feature clauses.total 735292
c feature clauses.unit 88722
c feature clauses.bin 518464
c feature clauses.trn 126706
c feature clauses.lrg 1400
c feature cog.val.min 1
c feature cog.val.avg 105898
c feature cog.val.max 228250
c feature cog.var.min 1
c feature cog.var.avg 118847
c feature cog.var.max 237691
c
c
c --abstime=0
c --acts=2
c --actavgmax=120
c --actstdmin=20
c --actstdmax=80
c --agile=23
c --bias=2
c --block=1
c --blkrtc=0
c --blkclslim=2000
c --blkocclim=2000
c --blkmaxeff=2147483647
c --blkmineff=10000000
c --blkreleff=20
c --card=0
c --cce=3
c --ccemaxeff=100000000
c --ccemineff=5000000
c --ccereleff=3
c --check=0
c --cgrclsr=1
c --cgrmaxority=20
c --cgrmaxeff=8000000
c --cgrmineff=200000
c --cgreleff=1
c --cgrexteq=1
c --cgrextand=1
c --cgrextunits=1
c --cgrextite=1
c --cgrextxor=1
c --cliff=1
c --cliffreleff=8
c --cliffmineff=10000000
c --cliffmaxeff=100000000
c --compact=0
c --decompose=1
c --defragint=10000000
c --defragfree=50
c --elim=1
c --elmrtc=0
c --elmblk=1
c --elmclslim=1000
c --elmocclim=1000
c --elmaxeff=100000000
c --elmineff=5000000
c --elmreleff=10
c --sleeponabort=0
c --exitonabort=0
c --flipping=1
c --flipint=2
c --flipdur=50
c --fliptop=1
c --force=0
c --gauss=1
c --gaussextrall=1
c --gaussmaxor=20
c --gaussexptrn=1
c --gaussmaxeff=50000000
c --gaussmineff=2000000
c --gaussreleff=2
c --gluescale=2
c --gluekeep=0
c --inprocessing=1
c --cintinc=10000
c --irrlim=20
c --lift=1
c --lftmaxeff=20000000
c --lftmineff=500000
c --lftreleff=6
c --lhbr=1
c --lkhd=1
c --clim=-1
c --mocint=1000
c --move=2
c --log=-1
c --otfs=1
c --phase=0
c --phaseneginit=0
c --plain=0
c --probe=1
c --prbasicmaxeff=100000000
c --prbasicmineff=1000000
c --prbasicreleff=10
c --prbasic=1
c --prbasicroundlim=9
c --queuemergelim=10000
c --queuefactor=833
c --queueinc=20
c --rmincpen=4
c --seed=0
c --smallirr=90
c --smallve=1
c --smallvevars=12
c --randec=1
c --randecint=1000
c --redfixed=0
c --redlbound=0
c --redlexpfac=10
c --redldoutfac=0
c --redloutinc=10000
c --redlinit=1000
c --redlinc=1000
c --redinoutinc=100
c --redlmininc=10
c --redlmaxinc=200
c --redlminrel=10
c --redlmaxrel=300
c --redlminabs=500
c --redlmaxabs=1000000
c --reduce=1
c --restart=2
c --restartint=5
c --rstinoutinc=110
c --simplify=1
c --simpdelay=100
c --simpen=4
c --sizepen=1000000
c --sizemaxpen=3
c --sortlits=0
c --syncint=111111
c --termint=122222
c --ternres=1
c --ternresrtc=0
c --trnrmineff=4000000
c --trnrmaxeff=40000000
c --trnreleff=10
c --transred=1
c --trdmineff=100000
c --trdmaxeff=2000000
c --trdreleff=10
c --unhide=1
c --unhdextstamp=1
c --unhdhbr=0
c --unhdmaxeff=20000000
c --unhdmineff=1000000
c --unhdreleff=4
c --unhdlnpr=3
c --unhdroundlim=5
c --verbose=1
c --witness=1
c [limits] no conflict limit
c [limits] simplification delayed by 100 to 100 conflicts
c 
c  seconds         irredundant          redundant clauses agility   height
c          variables clauses conflicts large binary ternary    glue         MB
c 
c *    0.0  130506   545504         0       0      0     0  66  0.0   0.0   43
c [cut-width] 180961, max 283620, min4 117428 at 75%, min10 36743 at 89%
c [decision-order] bias 1, old 1
c [queue-schedule-all-variables]
c s    0.0  130506   545504         0       0      0     0  66  0.0   0.0   43
c [simplification-1] limit hit at 100 conflicts
c [simplification-1] simplification penalty of 4
c [ternres-1] limit 4000000 with penalty 0 = 0 + 0
c [ternres-1] all 130506 free variables schedulable
c [ternres-1] 0 ternary resolvents (0 bin, 0 trn)
c [ternres-1] 29087 variables remain 22% (101419 retained)
c [gauss-1] limit 2000000 penalty 0 = 0 + 0
c [gauss-1] extracted 167227 xors of average arity 2.0
c [gauss-1] connected 334455 occurrences of 116196 variables (average 2.9)
c [gauss-1] limit 2000000 penalty 0 = 0 + 0
c [gauss-1] exported 0 unary, 0 binary and 0 ternary equations
c G    1.2  130506   521791       100     100      0     0  73  6.8 375.3   28
c d    1.5   59889   270651       100     100      0     0  73  6.8 375.3   21
c [basicprobe-1] limit 1000000 penalty 0 = 0 + 0
c [basicprobe-1-0] 4528 probes remain 8% after last round
c [basicprobe-1-0] 2 units = 2 failed (100%) + 0 lifted (0%)
c [basicprobe-1-0] removed 2 variables, found 2974 hbrs
c p    1.6   59887   270651       100     100   2974     0  73  6.8 375.3   26
c [cgrclsr-1] limit 200000 penalty 0 = 0 + 0
c [cgrclsr-1] all 59887 free variables schedulable
c [cgrclsr-1] fully completed congruence closure
c [lift-1] limit 500000 with penalty 0 = 0 + 0
c [lift-1] using 59887 probes 100%
c [lift-1] 59855 variables remain 100% (32 retained)
c [cliff-1] limit of 10000000 steps penalty 0 = 0 + 0
c [cliff-1] failed 0, lifted 0
c [unhide-1] limit 1000000 with penalty 0 = 0 + 0
c [unhide-1-1] 0 units, 1 failed, 21171 tauts, 0 hbrs, 95 literals
c u    2.7   59886   249471       100     100  14017     0  73  6.8 375.3   26
c [transred-1] limit 100000 with penalty 0 = 0 + 0
c t    2.7   59886   249471       100     100  14015     0  73  6.8 375.3   26
c [block-1] scheduling all variables this time
c [block-1] scheduled 59886 variables 100%
c [block-1] limit of 10000000 steps penalty 0 = 0 + 0
c [block-1] fully completed blocked clause elimination
c [block-1] transition to [ all 0 rem 0 ] state
c [block-1] eliminated 5002 blocked clauses
c k    3.1   59885   244437       100     100  14015  4999  73  6.8 375.3   21
c [cce-1] scheduling all variables this time
c [cce-1] limit of 10000000 steps penalty 0 = 0 + 0
c [cce-1] incomplete covered clause elimination 53587 not tried 89%
c [cce-1] transition to [ all 1 rem 1 ] state
c [cce-1] eliminated 70 covered clauses
c E    3.8   59884   244367       100     100  17292  4999  73  6.8 375.3   22
c [elim-1] scheduling all variables this time
c [elim-1] scheduled 59884 variables 100%
c [elim-1] limit of 5000000 steps penalty 0 = 0 + 0
c [elim-1] incomplete variable elimination 44582 not tried 74%
c [elim-1] transition to [ all 1 rem 1 ] state
c [elim-1] eliminated 6859 = 11% variables out of 59884
c e    5.4   53025   240244       100      53   7162   613  73  6.8 375.3   21
c [phase-1] phase bias: 1742 positive 16%, 9447 negative 84%
c [simplification-1] removed 77481 variables 59%
c [simplification-1] limit increments divided by 30
c [simplification-1] arithmetic increase of conflict limit interval by 333
c [simplification-1] new irredundant limit 2392548
c [simplification-1] new conflict limit 433
c [simplification-1] simplification penalty reduced to 3
c R    5.6   53025   240244       408     333   7170   631  13  7.7 316.8   26
c [simplification-2] limit hit at 433 conflicts
c [simplification-2] simplification penalty of 3
c [ternres-2] limit 2000000 with penalty 1 = 1 + 0
c [ternres-2] 11816 schedulable variables 22%
c [ternres-2] 14 ternary resolvents (0 bin, 14 trn)
c [ternres-2] fully completed ternary resolution
c T    5.7   53025   240244       433     350   7173   650  13  7.4 308.9   26
c [gauss-2] limit 1000000 penalty 1 = 1 + 0
c [gauss-2] extracted 486 xors of average arity 3.0
c [gauss-2] connected 1458 occurrences of 1206 variables (average 1.2)
c [gauss-2] limit 1000000 penalty 1 = 1 + 0
c [gauss-2] fully completed
c [gauss-2] exported 0 unary, 0 binary and 0 ternary equations
c G    5.8   53025   240244       433     350   7173   650  13  7.4 308.9   21
c [basicprobe-2] limit 1000000 penalty 0 = 0 + 0
c [basicprobe-2-0] 4090 probes remain 8% after last round
c [basicprobe-2-0] removed 0 variables, found 608 hbrs
c p    6.1   53025   240244       433     350   7780   649  13  7.4 308.9   26
c [cgrclsr-2] limit 100000 penalty 1 = 1 + 0
c [cgrclsr-2] all 53025 free variables schedulable
c [cgrclsr-2] fully completed congruence closure
c [lift-2] limit 250000 with penalty 1 = 1 + 0
c [lift-2] using 52999 probes 100%
c [lift-2] 52979 variables remain 100% (46 retained)
c [cliff-2] limit of 5000000 steps penalty 1 = 1 + 0
c [cliff-2] failed 0, lifted 0
c [unhide-2] limit 1000000 with penalty 0 = 0 + 0
c [unhide-2-2] 0 units, 5 failed, 1578 tauts, 0 hbrs, 245 literals
c u    6.9   53023   240238       433     348   6568   648  13  7.4 308.9   26
c [transred-3] limit 100000 with penalty 0 = 0 + 0
c t    6.9   53023   240234       433     348   6567   648  13  7.4 308.9   26
c [block-2] scheduling all variables this time
c [block-2] scheduled 53023 variables 100%
c [block-2] limit of 10000000 steps penalty 0 = 0 + 0
c [block-2] fully completed blocked clause elimination
c [block-2] transition to [ all 0 rem 0 ] state
c [block-2] eliminated 0 blocked clauses
c [cce-2] 49810 variables 94% will be scheduled this time
c [cce-2] limit of 10000000 steps penalty 0 = 0 + 0
c [cce-2] 49288 variables 93% remain to be tried next time
c [cce-2] transition to [ all 0 rem 1 ] state
c [cce-2] eliminated 329 covered clauses
c E    7.8   53023   239894       433     348   7163   648  13  7.4 308.9   21
c [elim-2] 44531 variables 84% will be scheduled this time
c [elim-2] scheduled 44531 variables 84%
c [elim-2] limit of 5000000 steps penalty 0 = 0 + 0
c [elim-2] 34568 variables 65% remain to be tried next time
c [elim-2] transition to [ all 0 rem 1 ] state
c [elim-2] eliminated 975 = 2% variables out of 53023
c e    9.4   52048   239475       433     347   4818   648  13  7.4 308.9   21
c [phase-2] phase bias: 1 positive 33%, 2 negative 67%
c [simplification-2] removed 977 variables 1%
c [simplification-2] no reduction of limit increments
c [simplification-2] arithmetic increase of conflict limit interval by 10000
c [simplification-2] new irredundant limit 2392548
c [simplification-2] new conflict limit 10766
c [simplification-2] simplification penalty reduced to 2
c R    9.9   52048   239475       978     836   4831   686   5  8.9 310.3   26
c -   10.0   52048   239475      1206     503   4851   715   3  8.2 277.5   26
c R   10.8   52048   239475      2273    1442   4872   812   2  7.9 252.6   26
c -   12.2   52048   239475      4197    1589   4958  1003   6  7.5 247.8   26
c 1   12.4   52048   239475      4598    1982   4958  1011   5  7.8 265.3   27
c 
c blkd: 2 bces, 5002 removed, 1432360 resolutions, 3966808 steps
c blkd: 5001 blocking literals 1%, 1 pure
c cces: 2 cces, 395 eliminated, 395 ate 100%, 0 abce 0%
c cces: 13640 probed, 0 lifted, 1 failed
c clff: 2 cliffs, 0 lifted, 0 failed
c clff: 6245 decisions, 15024737 steps
c clls: 1 sat, 0 simp, 0 freeze, 0 melt
c clls: 2265460 add, 0 assume,, 0 deref, 0 failed
c clls: 0 cassume, 0 mosat
c coll: 14 gcs, 0 rescored clauses
c cgrs: 2 count, 300001 esteps, 78728 csteps
c cgrs: 0 eqs, 0 units
c cgrs: 0 matched (0 ands 0%, 0 xors 0%, 0 ites 0%)
c cgrs: 0 simplified (0 ands 0%, 0 xors 0%, 0 ites 0%)
c cgrs: 2097 extracted (1766 ands 84%, 331 xors 16%, 0 ites 0%)
c dcps: 2 decompositions, 70617 equivalent 30%
c decs: 93423 decision, 96 random 0.103%
c decs: 18496 flipped 19.798% (in 31 phases)
c elms: 2 elims, 7835 eliminated 3%
c elms: 7834 small 100%, 0 large 0%
c elms: 25399 tried small, 7834 succeeded 31%, 17565 failed 69%
c elms: 0 subsumed, 0 strengthened, 0 blocked
c elms: 316441 copies, 221757 resolutions, 649630 ipos
c elms: 0 subchks, 0 strchks
c frcs: 0 computed, 30.8 - 69.2 average min-cut range
c gaus: 2 extractions, 167713 extracted, 2.0 size, 3 max
c gaus: exported 0 units, 0 binary and 0 ternary equations
c gaus: 0 gc, 6000038 steps, 3000019 extr 50%, 2218540 elim 37%
c glue: 7.8 avg, 2.8 scaled avg
c glue: 0 maxredglue=15 (0%)
c lift: 2 phases, 311 probed (104 level1 33%, 207 level2 67%)
c lift: 0 units, 0 equivalences, 1 implications
c hbrs: 18465 hbrs = 18465 trn 100% + 0 lrg 0%, 2 sub 0%
c lrnd: 4548 clauses, 2893 uips 64%, 26.7 length, 7.8 glue
c ints: 255 luby (28447 steps), 0 inout (0 steps)
c mins: 121334 learned lits, 4% minimized
c move: moved 5397, 397 binary 7%, 5000 ternary 93%
c otfs: str 165 dyn (128 red, 37 irr) 50 drv 30%, 115 rst 70%
c otfs: sub 1 dyn (1 red, 0 irr)
c phas: 2 computed, 11348 set, 1743 pos (15%), 9605 neg (85%)
c prbs: 2 basic, 2794 probed, 2 failed, 0 lifted
c prps: 16183757 props, 110 props/dec
c prps: 64% srch, 36% simp, 0% lkhd
c psns: 521939 searches, 67899 hits, 13% hit rate
c queu: 14996 new, 4734 del, 116 maximum priority
c queu: 10246 merged, 805 collected, 2 gcs
c queu: 4713 deprioritized, 22.3 lines on average
c reds: 2 count, 0 reset, 2 acts 100%, 0 exp 0%
c reds: 2 arithmetic 100%, 2 double 100%
c rmbd: 6 removed, 0 red 0%
c rsts: 221 restarts 87%, 33 skipped 13%
c rsts: 28 kept 12.7% average 45.3%
c simp: 2 count (0 ilim 0%, 0 plim 0%, 2 clim 100%)
c trnr: 2 count, 0 bin, 14 trn, 4931599 steps
c tops: 107192 fixed 45%, 0 iterations
c trds: 4 transitive reductions, 7 removed, 0 failed
c trds: 175 nodes, 262 edges, 201101 steps
c unhd: 2 count, 2 rounds, 2520798 steps
c unhd: 0 non-trivial sccs of average size 0.0
c unhd: 0 units, 0 bin, 0 trn, 0 lrg
c unhd: 6 failed, 5 stamp, 0 lits, 0 bin, 0 trn, 0 lrg
c unhd: 22749 tauts, 0 bin 0%, 1 trn 0%, 1 lrg 0%
c unhd: 22749 tauts, 22747 stamp 100%, 1578 red 7%
c unhd: 0 hbrs, 0 trn 0%, 0 lrg 0%, 0 red 0%
c unhd: 340 strd, 0 bin 0%, 1 trn 0%, 339 lrg 100%, 340 red 100%
c vars: 52048 remaining 22% and 185644 removed 78% out of 237692
c vars: 107192 fixed 45%, 7835 eliminated 3%, 70617 equivalent 30%
c vsts: 77286344 visits, 65% srch, 35% simp, 0% lkhd
c vsts: 4.9 search visits per propagation 10990.8 per conflict
c wchs: 8860948 pushed, 3878609 enlarged, 22 defrags
c 
c scaledglue  added       reduced       forcing      resolved     conflicts
c 
c all      4017 100      1978 100     20596 100      7398 100       568 100
c 
c  0          0   0         0   0         0   0         0   0         0   0 
c  1         38   1         0   0       458   2        59   1         2   0 
c  2       1351  34       699  35      8294  40      2232  30       148  26 
c  3       1356  34<      705  36<     7711  37<     2644  36<      229  40<
c  4        853  21       426  22      3075  15      1640  22       136  24 
c  5        266   7       100   5       828   4       548   7        41   7 
c  6         96   2        29   1       146   1       178   2         7   1 
c  7         37   1        10   1        56   0        65   1         2   0 
c  8         15   0         6   0        22   0        25   0         2   0 
c  9          3   0         1   0         4   0         5   0         1   0 
c 10          1   0         1   0         1   0         1   0         0   0 
c 11          1   0         1   0         1   0         1   0         0   0 
c 12          0   0         0   0         0   0         0   0         0   0 
c 13          0   0         0   0         0   0         0   0         0   0 
c 14          0   0         0   0         0   0         0   0         0   0 
c 15          0   0         0   0         0   0         0   0         0   0 
c 
c avg             3.1           3.1           2.8           3.2           3.2
c std             1.2           1.1           1.0           1.1           1.0
c 
c 93423 decisions, 4598 conflicts, 370.9 conflicts/sec
c 16183757 propagations, 1.3 megaprops/sec
c 12.4 seconds, 49.5 MB
c 
c    0.392   3% analysis
c    0.608   5% block
c    0.020   0% bump
c    0.000   0% card
c    1.336  11% cce
c    0.852   7% cliff
c    0.024   0% cutwidth
c    0.164   1% decide
c    0.000   0% force
c    1.076   9% gc
c    0.420   3% cgrclsr
c    0.408   3% decomp
c    0.296   2% defrag
c    3.172  26% elim
c    1.164   9% gauss
c    0.324   3% lift
c    0.068   1% mincls
c    0.080   1% phase
c    0.208   2% probe
c    0.012   0% reduce
c    0.212   2% restart
c    0.144   1% ternres
c    0.024   0% transred
c    0.364   3% unhide
c ==================================
c    0.036   0% preprocessing     0%
c    9.257  75% inprocessing    100%
c ==================================
c    9.293  75% simplifying
c    0.000   0% lookahead
c    3.088  25% search
c ==================================
c   12.397 100% all
c
s SATISFIABLE
